SAT
1 -2 -3 -70 4 -5 -6 -388 7 -8 -9 -148 10 -11 -12 -580 13 -14 -15 -391 16 -17 -18 -250 19 -20 -21 -58 22 -23 -24 -499 25 -26 -27 -409 28 -29 -30 -487 31 -32 -33 -385 34 -35 -36 -478 37 -38 -39 -343 40 -41 -42 -43 44 -45 46 -47 -48 -139 49 -50 -51 -535 52 -53 -54 -67 55 -56 -57 -184 59 -60 61 -62 -63 -262 64 -65 -66 -298 68 -69 71 -72 73 -74 -75 -109 76 -77 -78 -376 79 -80 -81 -334 82 -83 -84 -91 85 -86 -87 -229 88 -89 -90 -367 92 -93 94 -95 -96 -496 97 -98 -99 -331 100 -101 -102 -457 103 -104 -105 -370 106 -107 -108 -208 110 -111 112 -113 -114 -463 115 -116 -117 -214 118 -119 -120 -211 121 -122 -123 -439 124 -125 -126 -505 127 -128 -129 -436 130 -131 -132 -274 133 -134 -135 -307 136 -137 -138 -553 140 -141 142 -143 -144 -226 145 -146 -147 -493 149 -150 151 -152 -153 -427 154 -155 -156 -193 157 -158 -159 -349 160 -161 -162 -475 163 -164 -165 -514 166 -167 -168 -544 169 -170 -171 -550 172 -173 -174 -286 175 -176 -177 -346 178 -179 -180 -592 181 -182 -183 -187 185 -186 188 -189 190 -191 -192 -469 194 -195 196 -197 -198 -259 199 -200 -201 -529 202 -203 -204 -568 205 -206 -207 -292 209 -210 212 -213 215 -216 217 -218 -219 -280 220 -221 -222 -241 223 -224 -225 -412 227 -228 230 -231 232 -233 -234 -406 235 -236 -237 -490 238 -239 -240 -394 242 -243 244 -245 -246 -364 247 -248 -249 -472 251 -252 253 -254 -255 -481 256 -257 -258 -451 260 -261 263 -264 265 -266 -267 -295 268 -269 -270 -424 271 -272 -273 -460 275 -276 277 -278 -279 -403 281 -282 283 -284 -285 -559 287 -288 289 -290 -291 -448 293 -294 296 -297 299 -300 301 -302 -303 -547 304 -305 -306 -574 308 -309 310 -311 -312 -577 313 -314 -315 -319 316 -317 -318 -583 320 -321 322 -323 -324 -511 325 -326 -327 -337 328 -329 -330 -565 332 -333 335 -336 338 -339 340 -341 -342 -526 344 -345 347 -348 350 -351 352 -353 -354 -421 355 -356 -357 -379 358 -359 -360 -517 361 -362 -363 -532 365 -366 368 -369 371 -372 373 -374 -375 -520 377 -378 380 -381 382 -383 -384 -598 386 -387 389 -390 392 -393 395 -396 397 -398 -399 -466 400 -401 -402 -484 404 -405 407 -408 410 -411 413 -414 415 -416 -417 -454 418 -419 -420 -556 422 -423 425 -426 428 -429 430 -431 -432 -541 433 -434 -435 -586 437 -438 440 -441 442 -443 -444 -571 445 -446 -447 -508 449 -450 452 -453 455 -456 458 -459 461 -462 464 -465 467 -468 470 -471 473 -474 476 -477 479 -480 482 -483 485 -486 488 -489 491 -492 494 -495 497 -498 500 -501 502 -503 -504 -589 506 -507 509 -510 512 -513 515 -516 518 -519 521 -522 523 -524 -525 -562 527 -528 530 -531 533 -534 536 -537 538 -539 -540 -595 542 -543 545 -546 548 -549 551 -552 554 -555 557 -558 560 -561 563 -564 566 -567 569 -570 572 -573 575 -576 578 -579 581 -582 584 -585 587 -588 590 -591 593 -594 596 -597 599 -600 0